20
3
20291
158 254 224
false
0.25
18 50 36 43 23 23 27 12 43 35 39 22 28 45 8 25 36 21 14 16
23 36 35 6 22 7 8 12 44 42 27 19 37 35 19 10 22 4 38 20
13 4 35 1 6 2 31 8 21 14 11 46 18 13 25 12 39 19 37 47
50 25 45 5 1 63 61 53 16 7 22 42 0 52 22 75 52 76 45 96
0 0 0 0 41 0 0 0 0 0 0 0 11 0 0 0 0 0 50 0
0 0 0 0 75 0 10 29 0 0 0 94 0 0 0 0 4 93 0
0 0 0 0 0 20 0 0 0 0 0 0 0 0 41 0 0 0
0 45 0 0 0 0 0 87 0 0 0 0 3 0 50 0 0
0 0 0 0 0 55 0 0 0 0 0 0 0 57 0 0
0 0 0 0 0 0 0 0 0 0 1 0 0 51 0
0 0 0 0 0 0 0 0 0 0 0 0 0 0
0 0 0 0 52 0 20 18 27 29 33 0 0
0 92 0 0 0 0 0 0 0 0 28 0
0 2 70 0 76 6 88 72 0 92 0
0 11 0 41 0 33 98 0 74 0
0 0 0 0 0 57 0 0 10
0 0 0 0 71 0 0 0
0 0 0 0 0 0 0
0 0 10 0 79 74
0 0 0 0 0
0 88 0 0
0 0 0
0 0
0 0 78 0 0 0 0 62 0 63 54 44 0 0 98 0 0 50 79
0 0 0 0 0 0 0 0 0 0 0 0 0 0 0 0 0 0
0 0 0 0 0 0 0 0 0 0 0 9 0 53 0 0 0
0 39 0 0 0 0 0 0 0 0 0 0 88 0 0 0
0 48 23 0 32 0 74 46 0 64 46 0 0 0 0
0 0 0 0 0 3 0 0 54 0 0 0 0 0
0 32 0 0 0 0 0 82 0 0 0 0 0
0 0 0 0 0 0 0 0 0 0 0 0
0 0 39 41 0 0 99 0 0 0 0
0 0 0 0 0 0 0 0 0 37
0 93 0 52 0 0 0 67 0
0 0 0 0 0 0 0 46
0 0 0 0 0 35 0
0 0 0 0 0 61
0 55 0 0 0
0 0 0 0
0 56 0
0 0
0
0 30 9 0 0 76 0 0 0 0 0 67 0 11 0 0 0 34
0 0 0 64 0 54 35 9 64 86 0 88 0 0 0 0 38
0 0 96 0 19 0 88 0 0 0 0 38 0 0 88 0
0 0 0 0 0 0 0 90 0 0 0 44 0 0 0
0 0 65 0 0 0 0 0 0 0 0 72 0 0
0 0 0 0 0 0 77 0 0 69 0 0 40
0 17 0 0 0 4 9 0 0 0 33 93
0 0 0 0 0 83 58 0 0 0 96
0 0 29 0 0 0 94 0 0 0
0 34 0 0 0 5 0 0 21
0 0 0 0 0 0 0 0
0 78 0 31 0 0 0
0 0 0 0 0 0
0 0 0 0 0
0 0 0 88
0 0 50
0 0
0
0 44 0 11 45 0 0 0 68 0 0 0 0 0 5 0 0
0 0 0 0 0 0 0 0 0 0 0 0 1 0 0 0
0 49 0 0 0 0 0 97 33 0 13 45 0 0 0
0 46 0 0 0 0 0 0 0 0 0 0 52 0
0 12 0 43 0 100 0 0 0 0 0 46 0
0 94 5 0 0 0 0 7 0 0 0 0
0 0 0 37 4 0 0 19 0 0 19
0 0 0 0 0 0 0 0 0 0
0 77 0 0 0 0 0 0 0
0 0 0 73 10 93 59 0
0 26 16 0 0 36 0
0 0 0 36 0 0
0 0 0 85 0
0 50 0 0
0 66 0
0 0
0
0 46 0 0 0 72 0 0 0 77 0 20 0 17 0 0
0 0 0 0 0 0 0 0 0 0 0 0 0 0 0
0 0 0 0 0 0 0 0 0 0 0 0 0 0
0 0 0 32 0 40 0 0 0 0 0 0 0
0 40 0 0 86 87 0 0 0 0 0 0
0 0 26 0 0 0 0 0 56 5 0
0 93 0 0 0 0 55 0 0 48
0 0 44 0 0 0 0 0 0
0 0 0 40 0 85 0 0
0 0 0 3 0 0 0
0 77 56 66 0 20
0 0 0 0 0
0 0 89 0
0 0 29
0 0
0
0 0 3 0 0 92 0 0 0 0 0 0 0 14 79
0 0 0 0 0 0 9 0 0 0 95 62 0 0
0 72 0 62 0 0 0 0 0 0 35 0 0
0 0 0 10 0 79 0 0 0 86 0 0
0 0 0 0 3 0 0 0 0 0 0
0 0 0 34 0 0 0 0 0 13
0 0 6 0 71 16 0 0 0
0 8 0 54 0 0 0 0
0 0 0 0 0 42 0
0 0 68 0 0 0
0 0 0 0 0
0 0 34 0
0 0 75
0 0
0
0 0 0 0 0 22 0 0 0 0 0 0 0 62
0 0 86 72 0 0 0 33 12 75 68 0 0
0 0 0 60 0 0 30 0 0 0 0 0
0 0 0 0 6 0 0 0 48 0 0
0 0 0 0 64 0 4 0 0 0
0 0 0 0 49 0 0 60 0
0 0 0 0 0 54 0 44
0 0 0 0 0 0 0
0 0 0 30 0 0
0 0 0 0 0
0 0 0 0
0 0 0
0 0
0
0 0 28 0 0 0 0 10 0 17 0 0 0
0 0 0 31 0 42 0 0 0 0 50 0
0 0 0 0 0 0 79 89 0 51 23
0 27 0 0 16 0 0 0 0 0
0 0 55 0 0 0 0 0 0
0 0 0 0 19 0 24 38
0 0 0 0 0 0 63
0 0 0 0 0 24
0 48 0 38 0
0 0 0 47
0 0 0
0 0
0
0 0 59 0 93 0 0 0 0 0 0 0
0 0 0 0 0 0 0 0 0 76 0
0 0 0 0 0 0 0 0 0 0
0 0 33 0 0 65 0 37 0
0 66 0 17 51 0 67 0
0 15 0 0 0 98 0
0 69 0 0 0 0
0 1 0 79 0
0 27 31 0
0 0 0
0 0
0
0 18 0 91 49 0 88 34 0 90 0
0 22 0 0 37 0 23 0 32 0
0 0 0 0 0 0 0 0 0
0 10 0 0 26 65 0 0
0 0 69 0 0 0 4
0 1 0 0 29 96
0 0 0 0 0
0 14 0 0
0 0 19
0 0
0
0 0 0 0 0 0 0 59 0 0
0 0 0 0 0 0 76 5 0
0 0 0 0 0 0 0 0
0 0 0 0 0 83 0
0 0 0 0 52 0
0 0 0 0 0
0 0 0 68
0 0 0
0 0
0
0 34 0 0 0 0 22 0 0
0 0 0 0 0 0 0 0
0 0 2 76 87 0 89
0 94 0 95 67 0
0 0 0 0 88
0 0 0 0
0 89 0
0 0
0
0 43 95 0 0 0 97 16
0 0 0 0 29 17 0
0 0 0 0 9 0
0 0 3 0 0
0 0 0 0
0 0 0
0 0
0
0 0 0 0 0 0 0
0 0 0 70 0 0
0 15 33 0 0
0 68 0 0
0 0 0
0 0
0
0 0 0 0 0 0
0 0 26 34 0
0 0 0 89
0 84 0
0 58
0
0 0 88 0 0
0 0 0 0
0 49 58
0 0
0
0 42 0 79
0 0 0
0 0
0
0 0 0
0 0
0
0 11
0
0
2054 3132 1855 2280 2063 2046 1690 2482 2313 2634 2341 2066 2689 2206 2269 2142 2594 2561 2786 2122
120.4718196457327 310.88 52.50925925925926 904.3410852713178 175.76723759332455 468.0807453416149 109.45290720828355 241.30555555555557 72.16724554515253 108.7047619047619 119.84917551584219 82.51965883087165 106.0334262834263 93.91436711436711 164.60201754385966 159.46 85.49248899248899 298.9972848788638 115.8710289236605 94.62464539007091
